
Gurobi 7.5.2 (linux64) logging started Sat Jun 23 18:16:18 2018

Changed value of parameter LogFile to result/ilp/simNo_10-n_100-m_40-s_4-minVAF_0.05-cov_2000-k_1-fn_0.05-fp_0.0001-na_0.15.ILP.gurobiSolverLog
   Prev: gurobi.log  Default: 
Changed value of parameter TimeLimit to 86400.0
   Prev: 1e+100  Min: 0.0  Max: 1e+100  Default: 1e+100
Optimize a model with 1265601 rows, 330440 columns and 3489120 nonzeros
Variable types: 0 continuous, 330440 integer (330440 binary)
Coefficient statistics:
  Matrix range     [5e-04, 3e+00]
  Objective range  [7e-02, 9e+00]
  Bounds range     [1e+00, 1e+00]
  RHS range        [3e-01, 2e+00]
Found heuristic solution: objective -16275.24164
Presolve removed 336296 rows and 214357 columns (presolve time = 7s) ...
Presolve removed 336296 rows and 214357 columns (presolve time = 10s) ...
Presolve removed 337077 rows and 214357 columns (presolve time = 15s) ...
Presolve removed 337805 rows and 214357 columns (presolve time = 20s) ...
Presolve removed 337805 rows and 214357 columns (presolve time = 25s) ...
Presolve removed 337805 rows and 214357 columns (presolve time = 30s) ...
Presolve removed 337805 rows and 214357 columns (presolve time = 35s) ...
Presolve removed 337805 rows and 214357 columns (presolve time = 40s) ...
Presolve removed 337805 rows and 214357 columns (presolve time = 45s) ...
Presolve removed 337805 rows and 214357 columns (presolve time = 53s) ...
Presolve removed 337805 rows and 214357 columns (presolve time = 55s) ...
Presolve removed 337805 rows and 214357 columns
Presolve time: 55.07s
Presolved: 927796 rows, 116083 columns, 2573421 nonzeros
Variable types: 0 continuous, 116083 integer (116083 binary)
Presolve removed 0 rows and 0 columns (presolve time = 5s) ...
Presolved: 116083 rows, 1043879 columns, 2689504 nonzeros

Presolve removed 116083 rows and 1043879 columns

Root simplex log...

Iteration    Objective       Primal Inf.    Dual Inf.      Time
       0    4.0652684e+00   0.000000e+00   1.100780e+05     67s
   12863   -1.3983617e+02   0.000000e+00   1.045800e+04     70s
   14825   -1.5362686e+02   0.000000e+00   0.000000e+00     72s
   14825   -1.5362686e+02   0.000000e+00   0.000000e+00     75s

Root relaxation: objective -1.536269e+02, 14825 iterations, 16.64 seconds
Total elapsed time = 98.21s
Total elapsed time = 109.07s
Total elapsed time = 118.79s

    Nodes    |    Current Node    |     Objective Bounds      |     Work
 Expl Unexpl |  Obj  Depth IntInf | Incumbent    BestBd   Gap | It/Node Time

     0     0 -153.62686    0  613 -16275.242 -153.62686  99.1%     -  127s
H    0     0                    -196.1184803 -153.62686  21.7%     -  138s
     0     0 -157.80826    0  624 -196.11848 -157.80826  19.5%     -  157s
     0     0 -160.59577    0  589 -196.11848 -160.59577  18.1%     -  188s
     0     0 -163.38333    0  492 -196.11848 -163.38333  16.7%     -  213s
     0     0 -163.38333    0  508 -196.11848 -163.38333  16.7%     -  230s
     0     0 -164.77711    0  538 -196.11848 -164.77711  16.0%     -  249s
     0     0 -165.17533    0  498 -196.11848 -165.17533  15.8%     -  271s
     0     0 -165.17533    0  470 -196.11848 -165.17533  15.8%     -  288s
     0     0 -166.84908    0  502 -196.11848 -166.84908  14.9%     -  308s
H    0     0                    -193.3309180 -166.84908  13.7%     -  316s
     0     0 -166.84908    0  454 -193.33092 -166.84908  13.7%     -  326s
     0     0 -166.84908    0  510 -193.33092 -166.84908  13.7%     -  343s
H    0     0                    -190.5433558 -166.84908  12.4%     -  352s
     0     0 -166.84908    0  513 -190.54336 -166.84908  12.4%     -  362s
     0     0 -166.84908    0  466 -190.54336 -166.84908  12.4%     -  434s
     0     0 -167.00394    0  501 -190.54336 -167.00394  12.4%     -  450s
     0     0 -167.00394    0  503 -190.54336 -167.00394  12.4%     -  458s
     0     0 -168.05866    0  606 -190.54336 -168.05866  11.8%     -  565s
     0     0 -168.05866    0  618 -190.54336 -168.05866  11.8%     -  583s
     0     0 -168.39772    0  537 -190.54336 -168.39772  11.6%     -  600s
     0     0 -168.92507    0  674 -190.54336 -168.92507  11.3%     -  623s
     0     0 -168.92507    0  678 -190.54336 -168.92507  11.3%     -  635s
     0     0 -169.72446    0  670 -190.54336 -169.72446  10.9%     -  654s
     0     0 -169.79150    0  456 -190.54336 -169.79150  10.9%     -  672s
     0     0 -169.91821    0  472 -190.54336 -169.91821  10.8%     -  690s
     0     0 -169.93088    0  477 -190.54336 -169.93088  10.8%     -  704s
     0     0 -169.94637    0  477 -190.54336 -169.94637  10.8%     -  713s
     0     0 -171.19775    0  637 -190.54336 -171.19775  10.2%     -  731s
     0     0 -171.66237    0  702 -190.54336 -171.66237  9.91%     -  751s
     0     0 -171.66237    0  703 -190.54336 -171.66237  9.91%     -  760s
     0     0 -171.90091    0  697 -190.54336 -171.90091  9.78%     -  772s
     0     0 -172.57907    0  404 -190.54336 -172.57907  9.43%     -  794s
     0     0 -172.59155    0  741 -190.54336 -172.59155  9.42%     -  805s
     0     0 -172.59155    0  742 -190.54336 -172.59155  9.42%     -  814s
     0     0 -173.05613    0  670 -190.54336 -173.05613  9.18%     -  828s
     0     0 -173.29466    0  624 -190.54336 -173.29466  9.05%     -  843s
     0     0 -173.29472    0  656 -190.54336 -173.29472  9.05%     -  853s
     0     0 -173.63375    0  680 -190.54336 -173.63375  8.87%     -  872s
     0     0 -173.98033    0  678 -190.54336 -173.98033  8.69%     -  889s
     0     0 -173.98220    0  677 -190.54336 -173.98220  8.69%     -  898s
     0     0 -175.07353    0  671 -190.54336 -175.07353  8.12%     -  917s
     0     0 -175.23847    0  680 -190.54336 -175.23847  8.03%     -  933s
     0     0 -175.47954    0  686 -190.54336 -175.47954  7.91%     -  944s
     0     0 -175.61140    0  675 -190.54336 -175.61140  7.84%     -  954s
     0     0 -175.61140    0  679 -190.54336 -175.61140  7.84%     -  962s
     0     0 -175.68883    0  565 -190.54336 -175.68883  7.80%     -  977s
     0     0 -175.79599    0  564 -190.54336 -175.79599  7.74%     -  993s
     0     0 -175.84369    0  559 -190.54336 -175.84369  7.71%     - 1001s
     0     0 -175.84369    0  560 -190.54336 -175.84369  7.71%     - 1009s
     0     0 -175.84369    0  570 -190.54336 -175.84369  7.71%     - 1023s
     0     0 -175.84371    0  616 -190.54336 -175.84371  7.71%     - 1044s
     0     0 -175.84371    0  618 -190.54336 -175.84371  7.71%     - 1062s
     0     0 -175.84371    0  623 -190.54336 -175.84371  7.71%     - 1126s
     0     0 -175.84371    0  613 -190.54336 -175.84371  7.71%     - 1150s
     0     2 -175.88346    0  613 -190.54336 -175.88346  7.69%     - 1219s
     1     3 -177.15863    1  450 -190.54336 -175.89802  7.69%  1712 1225s
     3     5 -179.54797    3  378 -190.54336 -175.89802  7.69%   704 1232s
     4     4     cutoff    3      -190.54336 -175.89802  7.69%   669 1237s
     6     6 -179.54797    5  344 -190.54336 -175.89802  7.69%   463 1240s
     8     8 -189.30444    6  133 -190.54336 -175.89802  7.69%   502 1249s
    10     8     cutoff    8      -190.54336 -175.89802  7.69%   409 1250s
    13     5     cutoff    1      -190.54336 -177.17076  7.02%   732 1278s
    14     4     cutoff    2      -190.54336 -179.54797  5.77%   755 1287s
    15     3     cutoff    4      -190.54336 -179.54797  5.77%   728 1290s
    17     3 -182.05678    7  279 -190.54336 -180.94175  5.04%   674 1296s
    21     3 -182.33553    8  265 -190.54336 -180.94175  5.04%   555 1301s
    27     7     cutoff   13      -190.54336 -180.94175  5.04%   441 1306s
    29     7     cutoff   12      -190.54336 -180.94175  5.04%   415 1310s
    34     6 -187.91066   15  213 -190.54336 -180.94175  5.04%   363 1317s
    37     7     cutoff   16      -190.54336 -180.94175  5.04%   336 1320s
    43     5 -189.30444    7  191 -190.54336 -182.33553  4.31%   300 1327s
    46     6 -189.30444    9   68 -190.54336 -182.33553  4.31%   281 1330s
    52     2 -190.21852   15   68 -190.54336 -190.21852  0.17%   258 1336s

Cutting planes:
  Gomory: 1
  Zero half: 110

Explored 55 nodes (66206 simplex iterations) in 1337.81 seconds
Thread count was 1 (of 80 available processors)

Solution count 4: -190.543 -193.331 -196.118 -16275.2 

Optimal solution found (tolerance 1.00e-04)
Best objective -1.905433557651e+02, best bound -1.905433557651e+02, gap 0.0000%
